\* Problem A *\
Minimize
total_cost: 1.3 inv_1_1 + 1.8 inv_1_2 + 1.1 inv_1_3 + 0.9 inv_1_4
 + 1.3 inv_2_1 + 1.8 inv_2_2 + 1.1 inv_2_3 + 0.9 inv_2_4 + 0.3 x_1_A_1
 + 13.3 x_1_A_2 + 11.1 x_1_A_3 + 10.05 x_1_A_4 + 17.8 x_1_B_1 + 14.5 x_1_B_2
 + 11.8 x_1_B_3 + 10.05 x_1_B_4 + 18.2 x_1_C_1 + 15.02 x_1_C_2 + 12.2 x_1_C_3
 + 10.7 x_1_C_4 + 0.7 x_1_D_1 + 15 x_1_D_2 + 12.3 x_1_D_3 + 10.65 x_1_D_4
 + 18.2 x_1_E_1 + 14.5 x_1_E_2 + 12.45 x_1_E_3 + 10.65 x_1_E_4 + 18.25 x_1_F_1
 + 13.9 x_1_F_2 + 11.4 x_1_F_3 + 8.9 x_1_F_4 + 20.25 x_1_G_1 + 14.4 x_1_G_2
 + 11.5 x_1_G_3 + 10.15 x_1_G_4 + 0.3 x_2_A_1 + 13.3 x_2_A_2 + 11.1 x_2_A_3
 + 10.05 x_2_A_4 + 17.8 x_2_B_1 + 14.5 x_2_B_2 + 11.8 x_2_B_3 + 10.05 x_2_B_4
 + 18.2 x_2_C_1 + 15.02 x_2_C_2 + 12.2 x_2_C_3 + 10.7 x_2_C_4 + 0.7 x_2_D_1
 + 15 x_2_D_2 + 12.3 x_2_D_3 + 10.65 x_2_D_4 + 18.2 x_2_E_1 + 14.5 x_2_E_2
 + 12.45 x_2_E_3 + 10.65 x_2_E_4 + 18.25 x_2_F_1 + 13.9 x_2_F_2 + 11.4 x_2_F_3
 + 8.9 x_2_F_4 + 20.25 x_2_G_1 + 14.4 x_2_G_2 + 11.5 x_2_G_3 + 10.15 x_2_G_4
Subject To
capacity_1A: 0.4 x_1_A_2 + 0.375 x_1_A_3 + 0.25 x_1_A_4 <= 2500
capacity_1B: 0.7 x_1_B_1 + 0.5 x_1_B_2 + 0.35 x_1_B_3 + 0.25 x_1_B_4 <= 3000
capacity_1C: 0.675 x_1_C_1 + 0.45 x_1_C_2 + 0.4 x_1_C_3 + 0.25 x_1_C_4 <= 2500
capacity_1D: 0.45 x_1_D_2 + 0.35 x_1_D_3 + 0.2 x_1_D_4 <= 2600
capacity_1E: 0.65 x_1_E_1 + 0.45 x_1_E_2 + 0.4 x_1_E_3 + 0.25 x_1_E_4 <= 2500
capacity_1F: 0.625 x_1_F_1 + 0.5 x_1_F_2 + 0.425 x_1_F_3 + 0.425 x_1_F_4
 <= 38000
capacity_1G: 0.7 x_1_G_1 + 0.45 x_1_G_2 + 0.35 x_1_G_3 + 0.4 x_1_G_4 <= 2500
capacity_2A: 0.4 x_2_A_2 + 0.375 x_2_A_3 + 0.25 x_2_A_4 <= 2500
capacity_2B: 0.7 x_2_B_1 + 0.5 x_2_B_2 + 0.35 x_2_B_3 + 0.25 x_2_B_4 <= 3000
capacity_2C: 0.675 x_2_C_1 + 0.45 x_2_C_2 + 0.4 x_2_C_3 + 0.25 x_2_C_4 <= 2500
capacity_2D: 0.45 x_2_D_2 + 0.35 x_2_D_3 + 0.2 x_2_D_4 <= 2600
capacity_2E: 0.65 x_2_E_1 + 0.45 x_2_E_2 + 0.4 x_2_E_3 + 0.25 x_2_E_4 <= 2500
capacity_2F: 0.625 x_2_F_1 + 0.5 x_2_F_2 + 0.425 x_2_F_3 + 0.425 x_2_F_4
 <= 38000
capacity_2G: 0.7 x_2_G_1 + 0.45 x_2_G_2 + 0.35 x_2_G_3 + 0.4 x_2_G_4 <= 2500
demand_11: inv_0_1 - inv_1_1 + x_1_A_1 + x_1_B_1 + x_1_C_1 + x_1_D_1 + x_1_E_1
 + x_1_F_1 + x_1_G_1 = 25000
demand_12: inv_0_2 - inv_1_2 + x_1_A_2 + x_1_B_2 + x_1_C_2 + x_1_D_2 + x_1_E_2
 + x_1_F_2 + x_1_G_2 = 26000
demand_13: inv_0_3 - inv_1_3 + x_1_A_3 + x_1_B_3 + x_1_C_3 + x_1_D_3 + x_1_E_3
 + x_1_F_3 + x_1_G_3 = 28000
demand_14: inv_0_4 - inv_1_4 + x_1_A_4 + x_1_B_4 + x_1_C_4 + x_1_D_4 + x_1_E_4
 + x_1_F_4 + x_1_G_4 = 28000
demand_21: inv_1_1 - inv_2_1 + x_2_A_1 + x_2_B_1 + x_2_C_1 + x_2_D_1 + x_2_E_1
 + x_2_F_1 + x_2_G_1 = 25000
demand_22: inv_1_2 - inv_2_2 + x_2_A_2 + x_2_B_2 + x_2_C_2 + x_2_D_2 + x_2_E_2
 + x_2_F_2 + x_2_G_2 = 26000
demand_23: inv_1_3 - inv_2_3 + x_2_A_3 + x_2_B_3 + x_2_C_3 + x_2_D_3 + x_2_E_3
 + x_2_F_3 + x_2_G_3 = 28000
demand_24: inv_1_4 - inv_2_4 + x_2_A_4 + x_2_B_4 + x_2_C_4 + x_2_D_4 + x_2_E_4
 + x_2_F_4 + x_2_G_4 = 28000
initilization_1: inv_0_1 = 0
initilization_2: inv_0_2 = 0
initilization_3: inv_0_3 = 0
initilization_4: inv_0_4 = 0
min_inv_11: inv_1_1 >= 100
min_inv_12: inv_1_2 >= 100
min_inv_13: inv_1_3 >= 100
min_inv_14: inv_1_4 >= 100
min_inv_21: inv_2_1 >= 100
min_inv_22: inv_2_2 >= 100
min_inv_23: inv_2_3 >= 100
min_inv_24: inv_2_4 >= 100
xA1_1: x_1_A_1 = 0
xA1_2: x_2_A_1 = 0
xD1_1: x_1_D_1 = 0
xD1_2: x_2_D_1 = 0
End
